db/data/105292629623856222368786238244846633.z3.out
-------------------
2500.222816504
